letting initialStacks = [29, 30, 47, 20, 38, 9, 2, 39, 25, 34, 15, 18, 23, 8, 44, 41, 12, 50, 36, 3, 31, 45, 40, 51, 42, 19, 32, 10, 24, 17, 35, 11, 43, 26, 1, 16, 33, 14, 6, 28, 27, 22, 4, 48, 5, 46, 37, 13, 49, 7, 21]
